NAME : netgen24-2-16
COMMENT : Generated using the function generateClusteredNetwork from the R-package netgen (Bossek,2015) - Number of clusters: 2
TYPE : TSP
DIMENSION : 24
EDGE_WEIGHT_TYPE : EUC_2D
NODE_COORD_SECTION
1 37.7113396479 54.8791640608
2 45.2750676052 50.1572641303
3 45.6554497519 46.4962241775
4 47.6430090184 52.8352162753
5 45.1020482673 63.5175127424
6 42.8566669534 59.3281169885
7 49.422258204 53.180233409
8 49.2182607521 51.5764240708
9 42.110203537 46.1189788133
10 47.0071935614 50.9894231156
11 47.3103452995 54.2637038967
12 40.9845035128 55.4761696084
13 69.6077925619 46.2396466803
14 73.970736853 46.7330528229
15 59.5729957795 41.0278956645
16 59.095136191 40.9529316389
17 65.3011324002 35.0466883018
18 63.752173898 36.8081537297
19 66.706573182 48.0933083999
20 73.0617583865 35.3665231255
21 60.7705706141 46.4146348922
22 67.327481275 38.2891809891
23 64.9308854933 51.7881791264
24 58.4189336998 40.0977555353
EOF
